clingo version 5.4.1
Reading from provaASP20.lp
Solving...
UNSATISFIABLE

Models       : 0
Calls        : 1
Time         : 71.429s (Solving: 68.15s 1st Model: 0.00s Unsat: 68.15s)
CPU Time     : 68.207s
